WARNING: for repeatability, setting FPU to use double precision
============================[ Problem Statistics ]=============================
|                                                                             |
|  Number of variables:          1002                                         |
|  Number of clauses:           38697                                         |
|  Parse time:                   0.00 s                                       |
|                                                                             |
c ============================[ Search Statistics ]==============================
c | Conflicts |          ORIGINAL         |          LEARNT          | Progress |
c |           |    Vars  Clauses Literals |    Limit  Clauses Lit/Cl |          |
c ===============================================================================
c Switched to VSIDS.
c Switched to LRB.
c Switched to VSIDS.
c Switched to LRB.
c Switched to VSIDS.
c Switched to LRB.
c Switched to VSIDS.
c Switched to LRB.
c Switched to VSIDS.
c Switched to LRB.
c Switched to VSIDS.
c Switched to LRB.
c Switched to VSIDS.
c Switched to LRB.
c Switched to VSIDS.
c Switched to LRB.
c Switched to VSIDS.
c Switched to LRB.
c Switched to VSIDS.
c Switched to LRB.
c Switched to VSIDS.
c Switched to LRB.
c Switched to VSIDS.
c Switched to LRB.
c Switched to VSIDS.
c Switched to LRB.
c Switched to VSIDS.
c ===============================================================================
restarts                  : 37125
conflicts                 : 19495622       (5523 /sec)
decisions                 : 26114437       (0.00 % random) (7399 /sec)
propagations              : 4077633143     (1155270 /sec)
conflict literals         : 1792377837     (33.51 % deleted)

conflicts w/ DIP found    : 12092440       (62.03 % of conflicts)
conflicts w/ dangerous DIP: 0              (0.00 % of conflicts)
conflicts w/ DIP-learning : 56957          (0.29 % of conflicts)
decisions on ext vars     : 929            (0.00 % of decisions)
total ext vars            : 5722        
tried delete ext vars     : 29          
deleted ext vars          : 29          
max ext vars              : 5693        

Memory used               : 232.00 MB
CPU time                  : 3529.59 s
DIP computation time      : 106.496 s (3.02 % of total time)
ER_sel time               : 23.5862 s
ER_add time               : 0.020237 s
ER_delC time              : 0 s
ER_delV time              : 0.113622 s
ER_sub time               : 26.6968 s
ER_stat time              : 0 s

INDETERMINATE
